p cnf 9 19
4 -1 -3 0
-6 -4 -3 0
-4 -3 -8 7 2 5 0
3 8 5 0
-2 -3 -4 1 9 -8 -5 0
6 -9 1 2 -8 4 0
5 3 0
-4 -6 1 0
9 3 2 0
1 6 5 -2 4 -7 9 0
7 -4 1 9 3 5 0
2 7 -1 0
7 -4 5 0
-8 6 7 -2 0
-6 -8 2 -4 9 1 -3 0
2 -5 0
5 -4 0
-3 7 8 0
4 3 -5 1 7 -9 0
